250 100
15 2940
4 1744
94 2093
46 1462
93 937
29 2141
55 3180
94 1601
35 754
45 127
43 4880
60 533
9 4895
30 2478
49 3267
15 2066
1 1715
79 2761
54 456
93 3608
36 4032
49 3836
93 3604
94 3268
31 4709
6 2523
49 2926
91 3106
28 2899
21 3261
3 631
6 3652
44 1323
13 2409
14 4650
30 3673
4 1921
51 1323
56 3772
93 1158
50 3108
66 4496
96 3460
59 3688
68 4107
34 1717
60 1148
42 2615
1 904
87 3635
26 886
30 3477
88 1680
5 3902
40 1743
87 28
17 1505
87 4057
53 3590
55 4691
67 4867
34 1490
44 2229
95 4897
47 2183
49 1700
85 1279
11 552
9 970
55 3304
45 1896
40 2619
88 738
42 2154
68 1856
0 1767
88 4695
88 1882
31 3127
73 3037
10 3283
26 1423
9 3378
15 2214
81 4138
87 3621
43 1356
17 1557
5 314
7 936
18 4597
28 3576
68 1164
21 510
76 798
17 1159
75 4040
3 3553
49 3163
9 4595
